NAME          DCAP_3_4_2_200_SS66
ROWS
 N  OBJ
 L  CON1
 L  CON2
 L  CON3
 L  CON4
 L  CON5
 L  CON6
 L  CON7
 L  CON8
 L  CON9
 L  CON10
 L  CON11
 L  CON12
 E  CON13
 E  CON14
 E  CON15
 E  CON16
 E  CON17
 E  CON18
 E  CON19
 E  CON20
COLUMNS
    x[1,1]    OBJ       6.180167      CON1      1.000000    
    x[1,1]    CON7      -1.000000     CON8      -1.000000   
    x[1,2]    OBJ       5.039546      CON2      1.000000    
    x[1,2]    CON8      -1.000000   
    x[2,1]    OBJ       6.732585      CON3      1.000000    
    x[2,1]    CON9      -1.000000     CON10     -1.000000   
    x[2,2]    OBJ       7.443064      CON4      1.000000    
    x[2,2]    CON10     -1.000000   
    x[3,1]    OBJ       6.563535      CON5      1.000000    
    x[3,1]    CON11     -1.000000     CON12     -1.000000   
    x[3,2]    OBJ       6.054841      CON6      1.000000    
    x[3,2]    CON12     -1.000000   
    MARKER    'MARKER'                'INTORG'
    u[1,1]    OBJ       48.076654     CON1      -1.000000   
    u[1,2]    OBJ       49.466655     CON2      -1.000000   
    u[2,1]    OBJ       49.996186     CON3      -1.000000   
    u[2,2]    OBJ       32.230043     CON4      -1.000000   
    u[3,1]    OBJ       20.066487     CON5      -1.000000   
    u[3,2]    OBJ       27.484319     CON6      -1.000000   
    y[1,1,1]  OBJ       6.468164      CON7      1.118851    
    y[1,1,1]  CON13     1.000000    
    y[1,1,2]  OBJ       5.936067      CON8      0.988582    
    y[1,1,2]  CON14     1.000000    
    y[1,2,1]  OBJ       5.014424      CON7      1.466917    
    y[1,2,1]  CON15     1.000000    
    y[1,2,2]  OBJ       7.748446      CON8      0.602348    
    y[1,2,2]  CON16     1.000000    
    y[1,3,1]  OBJ       7.413380      CON7      1.309389    
    y[1,3,1]  CON17     1.000000    
    y[1,3,2]  OBJ       8.185443      CON8      1.220368    
    y[1,3,2]  CON18     1.000000    
    y[1,4,1]  OBJ       5.925312      CON7      0.840599    
    y[1,4,1]  CON19     1.000000    
    y[1,4,2]  OBJ       6.884477      CON8      0.860351    
    y[1,4,2]  CON20     1.000000    
    y[2,1,1]  OBJ       7.962343      CON9      1.118851    
    y[2,1,1]  CON13     1.000000    
    y[2,1,2]  OBJ       9.136185      CON10     0.988582    
    y[2,1,2]  CON14     1.000000    
    y[2,2,1]  OBJ       9.658855      CON9      1.466917    
    y[2,2,1]  CON15     1.000000    
    y[2,2,2]  OBJ       9.823739      CON10     0.602348    
    y[2,2,2]  CON16     1.000000    
    y[2,3,1]  OBJ       9.129682      CON9      1.309389    
    y[2,3,1]  CON17     1.000000    
    y[2,3,2]  OBJ       6.531509      CON10     1.220368    
    y[2,3,2]  CON18     1.000000    
    y[2,4,1]  OBJ       7.898218      CON9      0.840599    
    y[2,4,1]  CON19     1.000000    
    y[2,4,2]  OBJ       6.131691      CON10     0.860351    
    y[2,4,2]  CON20     1.000000    
    y[3,1,1]  OBJ       7.951916      CON11     1.118851    
    y[3,1,1]  CON13     1.000000    
    y[3,1,2]  OBJ       7.355901      CON12     0.988582    
    y[3,1,2]  CON14     1.000000    
    y[3,2,1]  OBJ       5.152739      CON11     1.466917    
    y[3,2,1]  CON15     1.000000    
    y[3,2,2]  OBJ       6.810286      CON12     0.602348    
    y[3,2,2]  CON16     1.000000    
    y[3,3,1]  OBJ       9.303110      CON11     1.309389    
    y[3,3,1]  CON17     1.000000    
    y[3,3,2]  OBJ       6.199799      CON12     1.220368    
    y[3,3,2]  CON18     1.000000    
    y[3,4,1]  OBJ       7.960884      CON11     0.840599    
    y[3,4,1]  CON19     1.000000    
    y[3,4,2]  OBJ       7.121276      CON12     0.860351    
    y[3,4,2]  CON20     1.000000    
    z[1,1]    OBJ       808.729828    CON13     1.000000    
    z[1,2]    OBJ       576.567664    CON14     1.000000    
    z[2,1]    OBJ       720.873952    CON15     1.000000    
    z[2,2]    OBJ       976.907855    CON16     1.000000    
    z[3,1]    OBJ       594.981192    CON17     1.000000    
    z[3,2]    OBJ       619.765231    CON18     1.000000    
    z[4,1]    OBJ       531.583132    CON19     1.000000    
    z[4,2]    OBJ       825.714473    CON20     1.000000    
    MARKER    'MARKER'                 'INTEND'
RHS
    RHS       CON1      -0.000000     CON2      -0.000000   
    RHS       CON3      -0.000000     CON4      -0.000000   
    RHS       CON5      -0.000000     CON6      -0.000000   
    RHS       CON7      -0.000000     CON8      -0.000000   
    RHS       CON9      -0.000000     CON10     -0.000000   
    RHS       CON11     -0.000000     CON12     -0.000000   
    RHS       CON13     1.000000      CON14     1.000000    
    RHS       CON15     1.000000      CON16     1.000000    
    RHS       CON17     1.000000      CON18     1.000000    
    RHS       CON19     1.000000      CON20     1.000000    
BOUNDS
 BV BOUND     u[1,1]  
 BV BOUND     u[1,2]  
 BV BOUND     u[2,1]  
 BV BOUND     u[2,2]  
 BV BOUND     u[3,1]  
 BV BOUND     u[3,2]  
 BV BOUND     y[1,1,1]
 BV BOUND     y[1,1,2]
 BV BOUND     y[1,2,1]
 BV BOUND     y[1,2,2]
 BV BOUND     y[1,3,1]
 BV BOUND     y[1,3,2]
 BV BOUND     y[1,4,1]
 BV BOUND     y[1,4,2]
 BV BOUND     y[2,1,1]
 BV BOUND     y[2,1,2]
 BV BOUND     y[2,2,1]
 BV BOUND     y[2,2,2]
 BV BOUND     y[2,3,1]
 BV BOUND     y[2,3,2]
 BV BOUND     y[2,4,1]
 BV BOUND     y[2,4,2]
 BV BOUND     y[3,1,1]
 BV BOUND     y[3,1,2]
 BV BOUND     y[3,2,1]
 BV BOUND     y[3,2,2]
 BV BOUND     y[3,3,1]
 BV BOUND     y[3,3,2]
 BV BOUND     y[3,4,1]
 BV BOUND     y[3,4,2]
 BV BOUND     z[1,1]  
 BV BOUND     z[1,2]  
 BV BOUND     z[2,1]  
 BV BOUND     z[2,2]  
 BV BOUND     z[3,1]  
 BV BOUND     z[3,2]  
 BV BOUND     z[4,1]  
 BV BOUND     z[4,2]  
ENDATA
